0 30 
1 33 
2 35 
3 35 
4 36 
5 36 
6 36 
7 35 
8 34 
9 34 
10 33 
11 32 
12 34 
13 33 
14 32 
15 33 
16 33 
17 33 
18 33 
19 33 
20 33 
21 32 
22 31 
23 30 
24 29 
25 28 
26 27 
27 26 
28 25 
29 25 
30 26 
31 25 
32 27 
33 26 
34 22 
35 21 
36 21 
37 20 
38 20 
39 19 
40 19 
41 19 
42 19 
43 18 
44 16 
45 15 
46 14 
47 13 
48 12 
49 9 
50 11 
51 10 
52 7 
53 6 
54 4 
55 5 
56 4 
57 3 
58 2 
59 3 
60 3 
61 2 
62 1 
63 0 
64 0 

